# 99179
param n := 25;
param s := 1;
set E :=  (0,6) (0,9) (0,13) (0,23) (1,10) (1,18) (1,20) (2,3) (2,10) (2,19) (2,22) (3,8) (3,14) (3,15) (4,6) (5,21) (5,22) (6,7) (6,11) (6,14) (6,22) (7,17) (8,9) (8,13) (9,24) (10,18) (11,16) (12,14) (14,24) (16,18);
